p cnf 456 338
c p distribution  0.875 0.125
c p distribution  0.875 0.125
c p distribution  0.875 0.125
c p distribution  0.875 0.125
c p distribution  0.875 0.125
c p distribution  0.875 0.125
c p distribution  0.875 0.125
c p distribution  0.875 0.125
c p distribution  0.875 0.125
c p distribution  0.875 0.125
c p distribution  0.875 0.125
c p distribution  0.875 0.125
c p distribution  0.875 0.125
c p distribution  0.875 0.125
c p distribution  0.875 0.125
c p distribution  0.875 0.125
c p distribution  0.875 0.125
c p distribution  0.875 0.125
c p distribution  0.875 0.125
c p distribution  0.875 0.125
c p distribution  0.875 0.125
c p distribution  0.875 0.125
c p distribution  0.875 0.125
c p distribution  0.875 0.125
c p distribution  0.875 0.125
c p distribution  0.875 0.125
c p distribution  0.875 0.125
c p distribution  0.875 0.125
c p distribution  0.875 0.125
c p distribution  0.875 0.125
c p distribution  0.875 0.125
c p distribution  0.875 0.125
c p distribution  0.875 0.125
c p distribution  0.875 0.125
c p distribution  0.875 0.125
c p distribution  0.875 0.125
c p distribution  0.875 0.125
c p distribution  0.875 0.125
c p distribution  0.875 0.125
c p distribution  0.875 0.125
c p distribution  0.875 0.125
c p distribution  0.875 0.125
c p distribution  0.875 0.125
c p distribution  0.875 0.125
c p distribution  0.875 0.125
c p distribution  0.875 0.125
c p distribution  0.875 0.125
c p distribution  0.875 0.125
c p distribution  0.875 0.125
c p distribution  0.875 0.125
c p distribution  0.875 0.125
c p distribution  0.875 0.125
c p distribution  0.875 0.125
c p distribution  0.875 0.125
c p distribution  0.875 0.125
c p distribution  0.875 0.125
c p distribution  0.875 0.125
c p distribution  0.875 0.125
c p distribution  0.875 0.125
c p distribution  0.875 0.125
c p distribution  0.875 0.125
c p distribution  0.875 0.125
c p distribution  0.875 0.125
c p distribution  0.875 0.125
c p distribution  0.875 0.125
c p distribution  0.875 0.125
c p distribution  0.875 0.125
c p distribution  0.875 0.125
c p distribution  0.875 0.125
c p distribution  0.875 0.125
c p distribution  0.875 0.125
c p distribution  0.875 0.125
c p distribution  0.875 0.125
c p distribution  0.875 0.125
c p distribution  0.875 0.125
c p distribution  0.875 0.125
c p distribution  0.875 0.125
c p distribution  0.875 0.125
c p distribution  0.875 0.125
c p distribution  0.875 0.125
c p distribution  0.875 0.125
c p distribution  0.875 0.125
c p distribution  0.875 0.125
c p distribution  0.875 0.125
c p distribution  0.875 0.125
c p distribution  0.875 0.125
c p distribution  0.875 0.125
c p distribution  0.875 0.125
c p distribution  0.875 0.125
c p distribution  0.875 0.125
c p distribution  0.875 0.125
c p distribution  0.875 0.125
c p distribution  0.875 0.125
c p distribution  0.875 0.125
c p distribution  0.875 0.125
c p distribution  0.875 0.125
c p distribution  0.875 0.125
c p distribution  0.875 0.125
c p distribution  0.875 0.125
c p distribution  0.875 0.125
c p distribution  0.875 0.125
c p distribution  0.875 0.125
c p distribution  0.875 0.125
c p distribution  0.875 0.125
c p distribution  0.875 0.125
c p distribution  0.875 0.125
c p distribution  0.875 0.125
c p distribution  0.875 0.125
c p distribution  0.875 0.125
c p distribution  0.875 0.125
c p distribution  0.875 0.125
c p distribution  0.875 0.125
c p distribution  0.875 0.125
c p distribution  0.875 0.125
c p distribution  0.875 0.125
c p distribution  0.875 0.125
c p distribution  0.875 0.125
c p distribution  0.875 0.125
c p distribution  0.875 0.125
c p distribution  0.875 0.125
c p distribution  0.875 0.125
c p distribution  0.875 0.125
c p distribution  0.875 0.125
c p distribution  0.875 0.125
c p distribution  0.875 0.125
c p distribution  0.875 0.125
c p distribution  0.875 0.125
c p distribution  0.875 0.125
c p distribution  0.875 0.125
c p distribution  0.875 0.125
c p distribution  0.875 0.125
c p distribution  0.875 0.125
c p distribution  0.875 0.125
c p distribution  0.875 0.125
c p distribution  0.875 0.125
c p distribution  0.875 0.125
c p distribution  0.875 0.125
c p distribution  0.875 0.125
c p distribution  0.875 0.125
c p distribution  0.875 0.125
c p distribution  0.875 0.125
c p distribution  0.875 0.125
c p distribution  0.875 0.125
c p distribution  0.875 0.125
c p distribution  0.875 0.125
c p distribution  0.875 0.125
c p distribution  0.875 0.125
c p distribution  0.875 0.125
c p distribution  0.875 0.125
c p distribution  0.875 0.125
c p distribution  0.875 0.125
c p distribution  0.875 0.125
c p distribution  0.875 0.125
c p distribution  0.875 0.125
c p distribution  0.875 0.125
c p distribution  0.875 0.125
c p distribution  0.875 0.125
c p distribution  0.875 0.125
c p distribution  0.875 0.125
c p distribution  0.875 0.125
c p distribution  0.875 0.125
c p distribution  0.875 0.125
c p distribution  0.875 0.125
c p distribution  0.875 0.125
c p distribution  0.875 0.125
c p distribution  0.875 0.125
c p distribution  0.875 0.125
c p distribution  0.875 0.125
359 0
-428 0
362 -353 -1 0
353 -362 -1 0
392 -357 -3 0
357 -392 -3 0
455 -410 -5 0
410 -455 -5 0
430 -412 -7 0
412 -430 -7 0
420 -348 -9 0
348 -420 -9 0
350 -424 -11 0
424 -350 -11 0
401 -361 -13 0
361 -401 -13 0
387 -425 -15 0
425 -387 -15 0
455 -410 -17 0
410 -455 -17 0
438 -455 -19 0
455 -438 -19 0
418 -378 -21 0
378 -418 -21 0
400 -423 -23 0
423 -400 -23 0
381 -397 -25 0
397 -381 -25 0
400 -431 -27 0
431 -400 -27 0
388 -370 -29 0
370 -388 -29 0
359 -413 -31 0
413 -359 -31 0
411 -444 -33 0
444 -411 -33 0
378 -390 -35 0
390 -378 -35 0
454 -354 -37 0
354 -454 -37 0
343 -338 -39 0
338 -343 -39 0
346 -360 -41 0
360 -346 -41 0
453 -455 -43 0
455 -453 -43 0
397 -371 -45 0
371 -397 -45 0
372 -349 -47 0
349 -372 -47 0
365 -422 -49 0
422 -365 -49 0
388 -356 -51 0
356 -388 -51 0
345 -425 -53 0
425 -345 -53 0
406 -442 -55 0
442 -406 -55 0
405 -453 -57 0
453 -405 -57 0
353 -376 -59 0
376 -353 -59 0
351 -368 -61 0
368 -351 -61 0
363 -427 -63 0
427 -363 -63 0
368 -394 -65 0
394 -368 -65 0
383 -338 -67 0
338 -383 -67 0
438 -341 -69 0
341 -438 -69 0
370 -409 -71 0
409 -370 -71 0
416 -418 -73 0
418 -416 -73 0
448 -449 -75 0
449 -448 -75 0
394 -386 -77 0
386 -394 -77 0
366 -427 -79 0
427 -366 -79 0
380 -403 -81 0
403 -380 -81 0
406 -433 -83 0
433 -406 -83 0
355 -447 -85 0
447 -355 -85 0
407 -430 -87 0
430 -407 -87 0
421 -454 -89 0
454 -421 -89 0
438 -358 -91 0
358 -438 -91 0
438 -419 -93 0
419 -438 -93 0
388 -403 -95 0
403 -388 -95 0
397 -369 -97 0
369 -397 -97 0
445 -340 -99 0
340 -445 -99 0
371 -369 -101 0
369 -371 -101 0
349 -440 -103 0
440 -349 -103 0
417 -408 -105 0
408 -417 -105 0
417 -396 -107 0
396 -417 -107 0
424 -390 -109 0
390 -424 -109 0
368 -345 -111 0
345 -368 -111 0
438 -351 -113 0
351 -438 -113 0
338 -375 -115 0
375 -338 -115 0
408 -438 -117 0
438 -408 -117 0
431 -375 -119 0
375 -431 -119 0
448 -380 -121 0
380 -448 -121 0
363 -447 -123 0
447 -363 -123 0
358 -419 -125 0
419 -358 -125 0
438 -428 -127 0
428 -438 -127 0
360 -442 -129 0
442 -360 -129 0
422 -342 -131 0
342 -422 -131 0
383 -423 -133 0
423 -383 -133 0
338 -423 -135 0
423 -338 -135 0
416 -340 -137 0
340 -416 -137 0
409 -396 -139 0
396 -409 -139 0
408 -438 -141 0
438 -408 -141 0
418 -385 -143 0
385 -418 -143 0
399 -456 -145 0
456 -399 -145 0
349 -372 -147 0
372 -349 -147 0
350 -378 -149 0
378 -350 -149 0
439 -414 -151 0
414 -439 -151 0
437 -455 -153 0
455 -437 -153 0
341 -419 -155 0
419 -341 -155 0
420 -348 -157 0
348 -420 -157 0
353 -376 -159 0
376 -353 -159 0
383 -338 -161 0
338 -383 -161 0
351 -411 -163 0
411 -351 -163 0
439 -377 -165 0
377 -439 -165 0
392 -357 -167 0
357 -392 -167 0
408 -438 -169 0
438 -408 -169 0
435 -387 -171 0
387 -435 -171 0
454 -441 -173 0
441 -454 -173 0
435 -344 -175 0
344 -435 -175 0
395 -434 -177 0
434 -395 -177 0
398 -425 -179 0
425 -398 -179 0
455 -432 -181 0
432 -455 -181 0
356 -448 -183 0
448 -356 -183 0
341 -429 -185 0
429 -341 -185 0
436 -456 -187 0
456 -436 -187 0
364 -385 -189 0
385 -364 -189 0
435 -344 -191 0
344 -435 -191 0
449 -443 -193 0
443 -449 -193 0
453 -410 -195 0
410 -453 -195 0
346 -442 -197 0
442 -346 -197 0
446 -354 -199 0
354 -446 -199 0
436 -407 -201 0
407 -436 -201 0
455 -432 -203 0
432 -455 -203 0
389 -431 -205 0
431 -389 -205 0
416 -378 -207 0
378 -416 -207 0
348 -422 -209 0
422 -348 -209 0
338 -375 -211 0
375 -338 -211 0
412 -415 -213 0
415 -412 -213 0
374 -447 -215 0
447 -374 -215 0
443 -441 -217 0
441 -443 -217 0
396 -408 -219 0
408 -396 -219 0
338 -359 -221 0
359 -338 -221 0
407 -436 -223 0
436 -407 -223 0
408 -438 -225 0
438 -408 -225 0
373 -429 -227 0
429 -373 -227 0
357 -360 -229 0
360 -357 -229 0
384 -346 -231 0
346 -384 -231 0
448 -449 -233 0
449 -448 -233 0
450 -358 -235 0
358 -450 -235 0
374 -363 -237 0
363 -374 -237 0
451 -452 -239 0
452 -451 -239 0
414 -440 -241 0
440 -414 -241 0
448 -380 -243 0
380 -448 -243 0
441 -354 -245 0
354 -441 -245 0
417 -408 -247 0
408 -417 -247 0
455 -393 -249 0
393 -455 -249 0
413 -399 -251 0
399 -413 -251 0
411 -391 -253 0
391 -411 -253 0
412 -430 -255 0
430 -412 -255 0
455 -445 -257 0
445 -455 -257 0
356 -448 -259 0
448 -356 -259 0
390 -385 -261 0
385 -390 -261 0
361 -438 -263 0
438 -361 -263 0
451 -452 -265 0
452 -451 -265 0
439 -452 -267 0
452 -439 -267 0
338 -382 -269 0
382 -338 -269 0
426 -429 -271 0
429 -426 -271 0
393 -374 -273 0
374 -393 -273 0
409 -440 -275 0
440 -409 -275 0
406 -386 -277 0
386 -406 -277 0
402 -393 -279 0
393 -402 -279 0
352 -377 -281 0
377 -352 -281 0
413 -359 -283 0
359 -413 -283 0
372 -414 -285 0
414 -372 -285 0
392 -347 -287 0
347 -392 -287 0
362 -338 -289 0
338 -362 -289 0
445 -340 -291 0
340 -445 -291 0
438 -367 -293 0
367 -438 -293 0
395 -433 -295 0
433 -395 -295 0
344 -404 -297 0
404 -344 -297 0
366 -350 -299 0
350 -366 -299 0
391 -415 -301 0
415 -391 -301 0
395 -387 -303 0
387 -395 -303 0
339 -444 -305 0
444 -339 -305 0
371 -352 -307 0
352 -371 -307 0
368 -345 -309 0
345 -368 -309 0
426 -342 -311 0
342 -426 -311 0
428 -394 -313 0
394 -428 -313 0
456 -362 -315 0
362 -456 -315 0
415 -386 -317 0
386 -415 -317 0
416 -379 -319 0
379 -416 -319 0
400 -376 -321 0
376 -400 -321 0
444 -339 -323 0
339 -444 -323 0
438 -455 -325 0
455 -438 -325 0
352 -403 -327 0
403 -352 -327 0
415 -433 -329 0
433 -415 -329 0
337 -443 -331 0
443 -337 -331 0
389 -382 -333 0
382 -389 -333 0
451 -377 -335 0
377 -451 -335 0

